Route #1: 121 79 62 81 25 68 151 93 100 87 61 40
Route #2: 146 110 29 80 31
Route #3: 130 50 114 124 137 2 90 67 145 42 89
Route #4: 106 111 15 75
Route #5: 148 66 132 112 126 107 36 33 28 63 102
Route #6: 30 10 140
Route #7: 48 24 41 88 103
Route #8: 142 6 16 150
Route #9: 9 84
Route #10: 118 46 149 99 51 86 77 115 19 98 119 44 152 128 82 38
Route #11: 49 78 136 21 104 45 55 143 74 129
Route #12: 91 34 64 69 139 17 147 131
Route #13: 4 23 97 133 57
Route #14: 53 73 11 52 123 60 71 101 138 92 120 127 117
Route #15: 7 5
Route #16: 27 13
Route #17: 144 3 122 56 113 39 76 59 70 85 72
Route #18: 116 135 95 109 47 134 20 153 94
Route #19: 18 141 32
Route #20: 37 8 12
Route #21: 22
Route #22: 96 26 83 65 105 125 58 54 43
Route #23: 108 14 35
